GLKH-1.1/TMP/mtspf.pid5668.atsp
NAME : mtspf.pid5668.gtsp
TYPE : ATSP
DIMENSION : 45
EDGE_WEIGHT_TYPE : EXPLICIT
EDGE_WEIGHT_FORMAT : FULL_MATRIX
EDGE_WEIGHT_SECTION
999999 5368709 5368709 5368709 5368709 5368740 5368739 5368740 5368741 5368730 5368731 5368732 5368731 5368736 5368735 5368736 5368737 5368719 5368720 5368721 5368720 5368727 5368728 5368727 5368726 5368736 5368735 5368736 5368737 5368727 5368728 5368729 5368728 5368753 5368752 5368753 5368754 5368718 5368717 5368718 5368719 5368743 5368742 5368743 5368744 
5368709 999999 5368709 5368709 5368709 5368736 5368737 5368736 5368735 5368728 5368729 5368730 5368729 5368722 5368723 5368724 5368723 5368747 5368748 5368749 5368748 5368735 5368736 5368735 5368734 5368730 5368731 5368730 5368729 5368725 5368726 5368727 5368726 5368725 5368724 5368725 5368726 5368732 5368733 5368734 5368733 5368731 5368732 5368731 5368730 
5368709 5368709 999999 5368709 5368709 5368728 5368729 5368728 5368727 5368730 5368731 5368732 5368731 5368730 5368731 5368732 5368731 5368751 5368752 5368751 5368750 5368733 5368734 5368733 5368732 5368722 5368723 5368722 5368721 5368727 5368728 5368729 5368728 5368723 5368722 5368721 5368722 5368736 5368737 5368736 5368735 5368723 5368724 5368723 5368722 
5368709 5368709 5368709 999999 5368709 5368726 5368725 5368726 5368727 5368748 5368747 5368748 5368749 5368748 5368747 5368748 5368749 5368733 5368734 5368735 5368734 5368715 5368716 5368717 5368716 5368722 5368721 5368722 5368723 5368745 5368744 5368745 5368746 5368739 5368738 5368739 5368740 5368728 5368727 5368728 5368729 5368729 5368728 5368729 5368730 
5368709 5368709 5368709 5368709 999999 5368740 5368741 5368740 5368739 5368718 5368719 5368720 5368719 5368724 5368723 5368724 5368725 5368731 5368732 5368733 5368732 5368739 5368740 5368739 5368738 5368734 5368735 5368734 5368733 5368715 5368716 5368717 5368716 5368741 5368740 5368741 5368742 5368724 5368725 5368724 5368723 5368735 5368736 5368735 5368734 
5368709 5368709 5368709 5368709 5368709 999999 0 10737418 10737418 5368746 5368747 5368748 5368747 5368746 5368747 5368748 5368747 5368749 5368750 5368749 5368748 5368731 5368732 5368731 5368730 5368716 5368717 5368718 5368717 5368743 5368744 5368745 5368744 5368729 5368730 5368731 5368730 5368734 5368735 5368734 5368733 5368715 5368716 5368717 5368716 
5368709 5368709 5368709 5368709 5368709 10737418 999999 0 10737418 5368747 5368748 5368749 5368748 5368747 5368748 5368749 5368748 5368748 5368749 5368750 5368749 5368730 5368731 5368732 5368731 5368717 5368718 5368719 5368718 5368744 5368745 5368746 5368745 5368730 5368731 5368732 5368731 5368733 5368734 5368735 5368734 5368716 5368717 5368718 5368717 
5368709 5368709 5368709 5368709 5368709 10737418 10737418 999999 0 5368748 5368747 5368748 5368749 5368748 5368747 5368748 5368749 5368747 5368748 5368749 5368748 5368729 5368730 5368731 5368730 5368718 5368717 5368718 5368719 5368745 5368744 5368745 5368746 5368731 5368730 5368731 5368732 5368732 5368733 5368734 5368733 5368717 5368716 5368717 5368718 
5368709 5368709 5368709 5368709 5368709 0 10737418 10737418 999999 5368747 5368746 5368747 5368748 5368747 5368746 5368747 5368748 5368748 5368749 5368748 5368747 5368730 5368731 5368730 5368729 5368717 5368716 5368717 5368718 5368744 5368743 5368744 5368745 5368730 5368729 5368730 5368731 5368733 5368734 5368733 5368732 5368716 5368715 5368716 5368717 
5368709 5368709 5368709 5368709 5368709 5368748 5368749 5368748 5368747 999999 0 10737418 10737418 5368726 5368725 5368724 5368725 5368731 5368732 5368731 5368730 5368747 5368748 5368747 5368746 5368742 5368743 5368742 5368741 5368715 5368714 5368713 5368714 5368743 5368742 5368741 5368742 5368732 5368733 5368732 5368731 5368743 5368744 5368743 5368742 
5368709 5368709 5368709 5368709 5368709 5368747 5368748 5368747 5368746 10737418 999999 0 10737418 5368725 5368724 5368725 5368726 5368730 5368731 5368732 5368731 5368746 5368747 5368746 5368745 5368741 5368742 5368741 5368740 5368714 5368713 5368712 5368713 5368742 5368741 5368742 5368743 5368731 5368732 5368731 5368730 5368742 5368743 5368742 5368741 
5368709 5368709 5368709 5368709 5368709 5368748 5368747 5368746 5368747 10737418 10737418 999999 0 5368726 5368725 5368726 5368727 5368729 5368730 5368731 5368730 5368747 5368746 5368745 5368746 5368742 5368741 5368740 5368741 5368715 5368714 5368713 5368714 5368743 5368742 5368743 5368744 5368732 5368731 5368730 5368731 5368743 5368742 5368741 5368742 
5368709 5368709 5368709 5368709 5368709 5368749 5368748 5368747 5368748 0 10737418 10737418 999999 5368727 5368726 5368725 5368726 5368730 5368731 5368730 5368729 5368748 5368747 5368746 5368747 5368743 5368742 5368741 5368742 5368716 5368715 5368714 5368715 5368744 5368743 5368742 5368743 5368733 5368732 5368731 5368732 5368744 5368743 5368742 5368743 
5368709 5368709 5368709 5368709 5368709 5368748 5368749 5368748 5368747 5368726 5368727 5368726 5368725 999999 0 10737418 10737418 5368745 5368746 5368745 5368744 5368747 5368748 5368747 5368746 5368742 5368743 5368742 5368741 5368723 5368724 5368723 5368722 5368729 5368728 5368727 5368728 5368732 5368733 5368732 5368731 5368743 5368744 5368743 5368742 
5368709 5368709 5368709 5368709 5368709 5368747 5368748 5368747 5368746 5368725 5368726 5368727 5368726 10737418 999999 0 10737418 5368744 5368745 5368746 5368745 5368746 5368747 5368746 5368745 5368741 5368742 5368741 5368740 5368722 5368723 5368724 5368723 5368728 5368727 5368726 5368727 5368731 5368732 5368731 5368730 5368742 5368743 5368742 5368741 
5368709 5368709 5368709 5368709 5368709 5368748 5368747 5368746 5368747 5368724 5368725 5368726 5368725 10737418 10737418 999999 0 5368743 5368744 5368745 5368744 5368747 5368746 5368745 5368746 5368742 5368741 5368740 5368741 5368721 5368722 5368723 5368722 5368729 5368728 5368727 5368728 5368732 5368731 5368730 5368731 5368743 5368742 5368741 5368742 
5368709 5368709 5368709 5368709 5368709 5368749 5368748 5368747 5368748 5368725 5368726 5368725 5368724 0 10737418 10737418 999999 5368744 5368745 5368744 5368743 5368748 5368747 5368746 5368747 5368743 5368742 5368741 5368742 5368722 5368723 5368722 5368721 5368730 5368729 5368728 5368729 5368733 5368732 5368731 5368732 5368744 5368743 5368742 5368743 
5368709 5368709 5368709 5368709 5368709 5368749 5368748 5368747 5368748 5368731 5368730 5368729 5368730 5368745 5368744 5368743 5368744 999999 0 10737418 10737418 5368732 5368733 5368732 5368731 5368745 5368744 5368743 5368744 5368734 5368733 5368732 5368733 5368762 5368761 5368760 5368761 5368727 5368726 5368725 5368726 5368752 5368751 5368750 5368751 
5368709 5368709 5368709 5368709 5368709 5368748 5368747 5368748 5368749 5368730 5368729 5368730 5368731 5368744 5368743 5368744 5368745 10737418 999999 0 10737418 5368731 5368732 5368731 5368730 5368744 5368743 5368744 5368745 5368733 5368732 5368733 5368734 5368761 5368760 5368761 5368762 5368726 5368725 5368726 5368727 5368751 5368750 5368751 5368752 
5368709 5368709 5368709 5368709 5368709 5368749 5368748 5368749 5368750 5368731 5368730 5368731 5368732 5368745 5368744 5368745 5368746 10737418 10737418 999999 0 5368732 5368731 5368730 5368731 5368745 5368744 5368745 5368746 5368734 5368733 5368734 5368735 5368762 5368761 5368762 5368763 5368727 5368726 5368727 5368728 5368752 5368751 5368752 5368753 
5368709 5368709 5368709 5368709 5368709 5368750 5368749 5368748 5368749 5368732 5368731 5368730 5368731 5368746 5368745 5368744 5368745 0 10737418 10737418 999999 5368733 5368732 5368731 5368732 5368746 5368745 5368744 5368745 5368735 5368734 5368733 5368734 5368763 5368762 5368761 5368762 5368728 5368727 5368726 5368727 5368753 5368752 5368751 5368752 
5368709 5368709 5368709 5368709 5368709 5368731 5368730 5368729 5368730 5368745 5368746 5368747 5368746 5368745 5368746 5368747 5368746 5368730 5368731 5368732 5368731 999999 0 10737418 10737418 5368727 5368726 5368725 5368726 5368742 5368743 5368744 5368743 5368744 5368743 5368742 5368743 5368725 5368726 5368727 5368726 5368734 5368733 5368732 5368733 
5368709 5368709 5368709 5368709 5368709 5368730 5368729 5368730 5368731 5368746 5368747 5368748 5368747 5368746 5368747 5368748 5368747 5368731 5368732 5368733 5368732 10737418 999999 0 10737418 5368726 5368725 5368726 5368727 5368743 5368744 5368745 5368744 5368743 5368742 5368743 5368744 5368726 5368727 5368728 5368727 5368733 5368732 5368733 5368734 
5368709 5368709 5368709 5368709 5368709 5368731 5368730 5368731 5368732 5368747 5368746 5368747 5368748 5368747 5368746 5368747 5368748 5368732 5368731 5368732 5368733 10737418 10737418 999999 0 5368727 5368726 5368727 5368728 5368744 5368743 5368744 5368745 5368744 5368743 5368744 5368745 5368727 5368726 5368727 5368728 5368734 5368733 5368734 5368735 
5368709 5368709 5368709 5368709 5368709 5368732 5368731 5368730 5368731 5368746 5368745 5368746 5368747 5368746 5368745 5368746 5368747 5368731 5368730 5368731 5368732 0 10737418 10737418 999999 5368728 5368727 5368726 5368727 5368743 5368742 5368743 5368744 5368745 5368744 5368743 5368744 5368726 5368725 5368726 5368727 5368735 5368734 5368733 5368734 
5368709 5368709 5368709 5368709 5368709 5368718 5368719 5368718 5368717 5368740 5368741 5368742 5368741 5368740 5368741 5368742 5368741 5368745 5368746 5368745 5368744 5368727 5368728 5368727 5368726 999999 0 10737418 10737418 5368737 5368738 5368739 5368738 5368729 5368728 5368727 5368728 5368730 5368731 5368730 5368729 5368719 5368718 5368717 5368718 
5368709 5368709 5368709 5368709 5368709 5368717 5368718 5368717 5368716 5368741 5368742 5368743 5368742 5368741 5368742 5368743 5368742 5368744 5368745 5368746 5368745 5368726 5368727 5368728 5368727 10737418 999999 0 10737418 5368738 5368739 5368740 5368739 5368728 5368727 5368728 5368729 5368729 5368730 5368731 5368730 5368718 5368717 5368718 5368719 
5368709 5368709 5368709 5368709 5368709 5368718 5368717 5368716 5368717 5368742 5368741 5368742 5368743 5368742 5368741 5368742 5368743 5368743 5368744 5368745 5368744 5368725 5368726 5368727 5368726 10737418 10737418 999999 0 5368739 5368738 5368739 5368740 5368729 5368728 5368729 5368730 5368728 5368729 5368730 5368729 5368719 5368718 5368719 5368720 
5368709 5368709 5368709 5368709 5368709 5368719 5368718 5368717 5368718 5368741 5368740 5368741 5368742 5368741 5368740 5368741 5368742 5368744 5368745 5368744 5368743 5368726 5368727 5368726 5368725 0 10737418 10737418 999999 5368738 5368737 5368738 5368739 5368730 5368729 5368728 5368729 5368729 5368730 5368729 5368728 5368720 5368719 5368718 5368719 
5368709 5368709 5368709 5368709 5368709 5368745 5368746 5368745 5368744 5368713 5368714 5368715 5368714 5368723 5368722 5368721 5368722 5368734 5368735 5368734 5368733 5368744 5368745 5368744 5368743 5368739 5368740 5368739 5368738 999999 0 10737418 10737418 5368740 5368739 5368738 5368739 5368729 5368730 5368729 5368728 5368740 5368741 5368740 5368739 
5368709 5368709 5368709 5368709 5368709 5368744 5368745 5368744 5368743 5368714 5368715 5368716 5368715 5368722 5368721 5368722 5368723 5368733 5368734 5368735 5368734 5368743 5368744 5368743 5368742 5368738 5368739 5368738 5368737 10737418 999999 0 10737418 5368739 5368738 5368739 5368740 5368728 5368729 5368728 5368727 5368739 5368740 5368739 5368738 
5368709 5368709 5368709 5368709 5368709 5368745 5368744 5368743 5368744 5368713 5368714 5368715 5368714 5368723 5368722 5368723 5368724 5368732 5368733 5368734 5368733 5368744 5368743 5368742 5368743 5368739 5368738 5368737 5368738 10737418 10737418 999999 0 5368740 5368739 5368740 5368741 5368729 5368728 5368727 5368728 5368740 5368739 5368738 5368739 
5368709 5368709 5368709 5368709 5368709 5368746 5368745 5368744 5368745 5368712 5368713 5368714 5368713 5368724 5368723 5368722 5368723 5368733 5368734 5368733 5368732 5368745 5368744 5368743 5368744 5368740 5368739 5368738 5368739 0 10737418 10737418 999999 5368741 5368740 5368739 5368740 5368730 5368729 5368728 5368729 5368741 5368740 5368739 5368740 
5368709 5368709 5368709 5368709 5368709 5368731 5368732 5368731 5368730 5368743 5368744 5368743 5368742 5368727 5368728 5368729 5368728 5368762 5368763 5368762 5368761 5368744 5368745 5368744 5368743 5368729 5368730 5368729 5368728 5368740 5368741 5368740 5368739 999999 0 10737418 10737418 5368747 5368748 5368747 5368746 5368726 5368727 5368726 5368725 
5368709 5368709 5368709 5368709 5368709 5368730 5368731 5368730 5368729 5368742 5368743 5368744 5368743 5368728 5368729 5368730 5368729 5368761 5368762 5368763 5368762 5368743 5368744 5368745 5368744 5368728 5368729 5368730 5368729 5368739 5368740 5368741 5368740 10737418 999999 0 10737418 5368746 5368747 5368748 5368747 5368725 5368726 5368725 5368724 
5368709 5368709 5368709 5368709 5368709 5368731 5368730 5368729 5368730 5368741 5368742 5368743 5368742 5368727 5368728 5368729 5368728 5368760 5368761 5368762 5368761 5368742 5368743 5368744 5368743 5368727 5368728 5368729 5368728 5368738 5368739 5368740 5368739 10737418 10737418 999999 0 5368745 5368746 5368747 5368746 5368726 5368725 5368724 5368725 
5368709 5368709 5368709 5368709 5368709 5368732 5368731 5368730 5368731 5368742 5368743 5368742 5368741 5368726 5368727 5368728 5368727 5368761 5368762 5368761 5368760 5368743 5368744 5368743 5368742 5368728 5368729 5368728 5368727 5368739 5368740 5368739 5368738 0 10737418 10737418 999999 5368746 5368747 5368746 5368745 5368727 5368726 5368725 5368726 
5368709 5368709 5368709 5368709 5368709 5368734 5368733 5368732 5368733 5368730 5368731 5368732 5368731 5368730 5368731 5368732 5368731 5368727 5368728 5368727 5368726 5368727 5368728 5368727 5368726 5368730 5368729 5368728 5368729 5368727 5368728 5368729 5368728 5368747 5368746 5368745 5368746 999999 0 10737418 10737418 5368737 5368736 5368735 5368736 
5368709 5368709 5368709 5368709 5368709 5368733 5368732 5368733 5368734 5368731 5368732 5368733 5368732 5368731 5368732 5368733 5368732 5368726 5368727 5368728 5368727 5368726 5368727 5368726 5368725 5368729 5368728 5368729 5368730 5368728 5368729 5368730 5368729 5368746 5368745 5368746 5368747 10737418 999999 0 10737418 5368736 5368735 5368736 5368737 
5368709 5368709 5368709 5368709 5368709 5368734 5368733 5368734 5368735 5368732 5368731 5368732 5368733 5368732 5368731 5368732 5368733 5368725 5368726 5368727 5368726 5368727 5368726 5368725 5368726 5368730 5368729 5368730 5368731 5368729 5368728 5368729 5368730 5368747 5368746 5368747 5368748 10737418 10737418 999999 0 5368737 5368736 5368737 5368738 
5368709 5368709 5368709 5368709 5368709 5368735 5368734 5368733 5368734 5368731 5368730 5368731 5368732 5368731 5368730 5368731 5368732 5368726 5368727 5368726 5368725 5368728 5368727 5368726 5368727 5368731 5368730 5368729 5368730 5368728 5368727 5368728 5368729 5368748 5368747 5368746 5368747 0 10737418 10737418 999999 5368738 5368737 5368736 5368737 
5368709 5368709 5368709 5368709 5368709 5368717 5368718 5368717 5368716 5368741 5368742 5368743 5368742 5368741 5368742 5368743 5368742 5368752 5368753 5368752 5368751 5368734 5368735 5368734 5368733 5368719 5368720 5368719 5368718 5368738 5368739 5368740 5368739 5368724 5368725 5368726 5368725 5368737 5368738 5368737 5368736 999999 0 10737418 10737418 
5368709 5368709 5368709 5368709 5368709 5368716 5368717 5368716 5368715 5368742 5368743 5368744 5368743 5368742 5368743 5368744 5368743 5368751 5368752 5368753 5368752 5368733 5368734 5368735 5368734 5368718 5368719 5368720 5368719 5368739 5368740 5368741 5368740 5368725 5368726 5368727 5368726 5368736 5368737 5368738 5368737 10737418 999999 0 10737418 
5368709 5368709 5368709 5368709 5368709 5368717 5368716 5368715 5368716 5368743 5368742 5368743 5368744 5368743 5368742 5368743 5368744 5368750 5368751 5368752 5368751 5368732 5368733 5368734 5368733 5368717 5368718 5368719 5368718 5368740 5368739 5368740 5368741 5368726 5368725 5368726 5368727 5368735 5368736 5368737 5368736 10737418 10737418 999999 0 
5368709 5368709 5368709 5368709 5368709 5368718 5368717 5368716 5368717 5368742 5368741 5368742 5368743 5368742 5368741 5368742 5368743 5368751 5368752 5368751 5368750 5368733 5368734 5368733 5368732 5368718 5368719 5368718 5368717 5368739 5368738 5368739 5368740 5368725 5368724 5368725 5368726 5368736 5368737 5368736 5368735 0 10737418 10737418 999999 
EOF
