RobustCbss/GLKH-1.1/TMP/mtspf.pid5668.tour
NAME : mtspf.pid5668.gtsp.80530729.tour
COMMENT : Length = 80530729
COMMENT : Found by LKH [Keld Helsgaun] Sun Mar  2 12:46:41 2025
TYPE : TOUR
DIMENSION : 45
TOUR_SECTION
1
38
39
40
41
21
18
19
20
3
29
26
27
28
7
8
9
6
42
43
44
45
35
36
37
34
5
30
31
32
33
10
11
12
13
4
22
23
24
25
2
14
15
16
17
-1
EOF
